NAME : n100w20.001.827.tour
COMMENT : Length = 827
COMMENT : Found by LKH [Keld Helsgaun] Tue May  2 05:48:13 2017
TYPE : TOUR
DIMENSION : 101
TOUR_SECTION
1
89
31
69
2
50
12
10
58
66
43
73
29
21
80
5
51
96
23
25
7
61
63
87
95
54
62
57
65
11
33
9
13
71
6
35
88
30
94
86
77
93
99
79
78
4
44
3
76
75
45
42
56
17
28
14
60
92
24
20
67
48
36
41
39
19
34
97
74
32
16
8
47
84
53
49
59
85
40
98
100
91
68
90
38
83
64
82
55
18
15
72
81
46
26
27
52
22
101
37
70
-1
EOF
